num_wann = 14
num_bands = 36

dis_num_iter=1000
num_iter= 0
iprint=2
!min of outer window
dis_win_min = -4.5
dis_win_max = 16.0
!inner -
dis_froz_min = -4.5   
dis_froz_max = 7.0   
hr_plot =.true.

begin projections
In : s; px; py; pz
As : px; py; pz
end projections


spinors = .true.

begin unit_cell_cart
     0.0000000     3.0290000     3.0290000
     3.0290000     0.0000000     3.0290000
     3.0290000     3.0290000     0.0000000
end unit_cell_cart

begin atoms_cart
In       0.0000000     0.0000000     0.0000000
As       1.5145000     1.5145000     1.5145000
end atoms_cart

mp_grid =     6     6     6

begin kpoints
      0.000000000000      0.000000000000      0.000000000000
      0.166666666667      0.000000000000      0.000000000000
      0.333333333333      0.000000000000      0.000000000000
      0.500000000000      0.000000000000      0.000000000000
     -0.333333333333      0.000000000000      0.000000000000
     -0.166666666667      0.000000000000      0.000000000000
      0.000000000000      0.166666666667      0.000000000000
      0.166666666667      0.166666666667      0.000000000000
      0.333333333333      0.166666666667      0.000000000000
      0.500000000000      0.166666666667      0.000000000000
     -0.333333333333      0.166666666667      0.000000000000
     -0.166666666667      0.166666666667      0.000000000000
      0.000000000000      0.333333333333      0.000000000000
      0.166666666667      0.333333333333      0.000000000000
      0.333333333333      0.333333333333      0.000000000000
      0.500000000000      0.333333333333      0.000000000000
     -0.333333333333      0.333333333333      0.000000000000
     -0.166666666667      0.333333333333      0.000000000000
      0.000000000000      0.500000000000      0.000000000000
      0.166666666667      0.500000000000      0.000000000000
      0.333333333333      0.500000000000      0.000000000000
      0.500000000000      0.500000000000      0.000000000000
     -0.333333333333      0.500000000000      0.000000000000
     -0.166666666667      0.500000000000      0.000000000000
      0.000000000000     -0.333333333333      0.000000000000
      0.166666666667     -0.333333333333      0.000000000000
      0.333333333333     -0.333333333333      0.000000000000
      0.500000000000     -0.333333333333      0.000000000000
     -0.333333333333     -0.333333333333      0.000000000000
     -0.166666666667     -0.333333333333      0.000000000000
      0.000000000000     -0.166666666667      0.000000000000
      0.166666666667     -0.166666666667      0.000000000000
      0.333333333333     -0.166666666667      0.000000000000
      0.500000000000     -0.166666666667      0.000000000000
     -0.333333333333     -0.166666666667      0.000000000000
     -0.166666666667     -0.166666666667      0.000000000000
      0.000000000000      0.000000000000      0.166666666667
      0.166666666667      0.000000000000      0.166666666667
      0.333333333333      0.000000000000      0.166666666667
      0.500000000000      0.000000000000      0.166666666667
     -0.333333333333      0.000000000000      0.166666666667
     -0.166666666667      0.000000000000      0.166666666667
      0.000000000000      0.166666666667      0.166666666667
      0.166666666667      0.166666666667      0.166666666667
      0.333333333333      0.166666666667      0.166666666667
      0.500000000000      0.166666666667      0.166666666667
     -0.333333333333      0.166666666667      0.166666666667
     -0.166666666667      0.166666666667      0.166666666667
      0.000000000000      0.333333333333      0.166666666667
      0.166666666667      0.333333333333      0.166666666667
      0.333333333333      0.333333333333      0.166666666667
      0.500000000000      0.333333333333      0.166666666667
     -0.333333333333      0.333333333333      0.166666666667
     -0.166666666667      0.333333333333      0.166666666667
      0.000000000000      0.500000000000      0.166666666667
      0.166666666667      0.500000000000      0.166666666667
      0.333333333333      0.500000000000      0.166666666667
      0.500000000000      0.500000000000      0.166666666667
     -0.333333333333      0.500000000000      0.166666666667
     -0.166666666667      0.500000000000      0.166666666667
      0.000000000000     -0.333333333333      0.166666666667
      0.166666666667     -0.333333333333      0.166666666667
      0.333333333333     -0.333333333333      0.166666666667
      0.500000000000     -0.333333333333      0.166666666667
     -0.333333333333     -0.333333333333      0.166666666667
     -0.166666666667     -0.333333333333      0.166666666667
      0.000000000000     -0.166666666667      0.166666666667
      0.166666666667     -0.166666666667      0.166666666667
      0.333333333333     -0.166666666667      0.166666666667
      0.500000000000     -0.166666666667      0.166666666667
     -0.333333333333     -0.166666666667      0.166666666667
     -0.166666666667     -0.166666666667      0.166666666667
      0.000000000000      0.000000000000      0.333333333333
      0.166666666667      0.000000000000      0.333333333333
      0.333333333333      0.000000000000      0.333333333333
      0.500000000000      0.000000000000      0.333333333333
     -0.333333333333      0.000000000000      0.333333333333
     -0.166666666667      0.000000000000      0.333333333333
      0.000000000000      0.166666666667      0.333333333333
      0.166666666667      0.166666666667      0.333333333333
      0.333333333333      0.166666666667      0.333333333333
      0.500000000000      0.166666666667      0.333333333333
     -0.333333333333      0.166666666667      0.333333333333
     -0.166666666667      0.166666666667      0.333333333333
      0.000000000000      0.333333333333      0.333333333333
      0.166666666667      0.333333333333      0.333333333333
      0.333333333333      0.333333333333      0.333333333333
      0.500000000000      0.333333333333      0.333333333333
     -0.333333333333      0.333333333333      0.333333333333
     -0.166666666667      0.333333333333      0.333333333333
      0.000000000000      0.500000000000      0.333333333333
      0.166666666667      0.500000000000      0.333333333333
      0.333333333333      0.500000000000      0.333333333333
      0.500000000000      0.500000000000      0.333333333333
     -0.333333333333      0.500000000000      0.333333333333
     -0.166666666667      0.500000000000      0.333333333333
      0.000000000000     -0.333333333333      0.333333333333
      0.166666666667     -0.333333333333      0.333333333333
      0.333333333333     -0.333333333333      0.333333333333
      0.500000000000     -0.333333333333      0.333333333333
     -0.333333333333     -0.333333333333      0.333333333333
     -0.166666666667     -0.333333333333      0.333333333333
      0.000000000000     -0.166666666667      0.333333333333
      0.166666666667     -0.166666666667      0.333333333333
      0.333333333333     -0.166666666667      0.333333333333
      0.500000000000     -0.166666666667      0.333333333333
     -0.333333333333     -0.166666666667      0.333333333333
     -0.166666666667     -0.166666666667      0.333333333333
      0.000000000000      0.000000000000      0.500000000000
      0.166666666667      0.000000000000      0.500000000000
      0.333333333333      0.000000000000      0.500000000000
      0.500000000000      0.000000000000      0.500000000000
     -0.333333333333      0.000000000000      0.500000000000
     -0.166666666667      0.000000000000      0.500000000000
      0.000000000000      0.166666666667      0.500000000000
      0.166666666667      0.166666666667      0.500000000000
      0.333333333333      0.166666666667      0.500000000000
      0.500000000000      0.166666666667      0.500000000000
     -0.333333333333      0.166666666667      0.500000000000
     -0.166666666667      0.166666666667      0.500000000000
      0.000000000000      0.333333333333      0.500000000000
      0.166666666667      0.333333333333      0.500000000000
      0.333333333333      0.333333333333      0.500000000000
      0.500000000000      0.333333333333      0.500000000000
     -0.333333333333      0.333333333333      0.500000000000
     -0.166666666667      0.333333333333      0.500000000000
      0.000000000000      0.500000000000      0.500000000000
      0.166666666667      0.500000000000      0.500000000000
      0.333333333333      0.500000000000      0.500000000000
      0.500000000000      0.500000000000      0.500000000000
     -0.333333333333      0.500000000000      0.500000000000
     -0.166666666667      0.500000000000      0.500000000000
      0.000000000000     -0.333333333333      0.500000000000
      0.166666666667     -0.333333333333      0.500000000000
      0.333333333333     -0.333333333333      0.500000000000
      0.500000000000     -0.333333333333      0.500000000000
     -0.333333333333     -0.333333333333      0.500000000000
     -0.166666666667     -0.333333333333      0.500000000000
      0.000000000000     -0.166666666667      0.500000000000
      0.166666666667     -0.166666666667      0.500000000000
      0.333333333333     -0.166666666667      0.500000000000
      0.500000000000     -0.166666666667      0.500000000000
     -0.333333333333     -0.166666666667      0.500000000000
     -0.166666666667     -0.166666666667      0.500000000000
      0.000000000000      0.000000000000     -0.333333333333
      0.166666666667      0.000000000000     -0.333333333333
      0.333333333333      0.000000000000     -0.333333333333
      0.500000000000      0.000000000000     -0.333333333333
     -0.333333333333      0.000000000000     -0.333333333333
     -0.166666666667      0.000000000000     -0.333333333333
      0.000000000000      0.166666666667     -0.333333333333
      0.166666666667      0.166666666667     -0.333333333333
      0.333333333333      0.166666666667     -0.333333333333
      0.500000000000      0.166666666667     -0.333333333333
     -0.333333333333      0.166666666667     -0.333333333333
     -0.166666666667      0.166666666667     -0.333333333333
      0.000000000000      0.333333333333     -0.333333333333
      0.166666666667      0.333333333333     -0.333333333333
      0.333333333333      0.333333333333     -0.333333333333
      0.500000000000      0.333333333333     -0.333333333333
     -0.333333333333      0.333333333333     -0.333333333333
     -0.166666666667      0.333333333333     -0.333333333333
      0.000000000000      0.500000000000     -0.333333333333
      0.166666666667      0.500000000000     -0.333333333333
      0.333333333333      0.500000000000     -0.333333333333
      0.500000000000      0.500000000000     -0.333333333333
     -0.333333333333      0.500000000000     -0.333333333333
     -0.166666666667      0.500000000000     -0.333333333333
      0.000000000000     -0.333333333333     -0.333333333333
      0.166666666667     -0.333333333333     -0.333333333333
      0.333333333333     -0.333333333333     -0.333333333333
      0.500000000000     -0.333333333333     -0.333333333333
     -0.333333333333     -0.333333333333     -0.333333333333
     -0.166666666667     -0.333333333333     -0.333333333333
      0.000000000000     -0.166666666667     -0.333333333333
      0.166666666667     -0.166666666667     -0.333333333333
      0.333333333333     -0.166666666667     -0.333333333333
      0.500000000000     -0.166666666667     -0.333333333333
     -0.333333333333     -0.166666666667     -0.333333333333
     -0.166666666667     -0.166666666667     -0.333333333333
      0.000000000000      0.000000000000     -0.166666666667
      0.166666666667      0.000000000000     -0.166666666667
      0.333333333333      0.000000000000     -0.166666666667
      0.500000000000      0.000000000000     -0.166666666667
     -0.333333333333      0.000000000000     -0.166666666667
     -0.166666666667      0.000000000000     -0.166666666667
      0.000000000000      0.166666666667     -0.166666666667
      0.166666666667      0.166666666667     -0.166666666667
      0.333333333333      0.166666666667     -0.166666666667
      0.500000000000      0.166666666667     -0.166666666667
     -0.333333333333      0.166666666667     -0.166666666667
     -0.166666666667      0.166666666667     -0.166666666667
      0.000000000000      0.333333333333     -0.166666666667
      0.166666666667      0.333333333333     -0.166666666667
      0.333333333333      0.333333333333     -0.166666666667
      0.500000000000      0.333333333333     -0.166666666667
     -0.333333333333      0.333333333333     -0.166666666667
     -0.166666666667      0.333333333333     -0.166666666667
      0.000000000000      0.500000000000     -0.166666666667
      0.166666666667      0.500000000000     -0.166666666667
      0.333333333333      0.500000000000     -0.166666666667
      0.500000000000      0.500000000000     -0.166666666667
     -0.333333333333      0.500000000000     -0.166666666667
     -0.166666666667      0.500000000000     -0.166666666667
      0.000000000000     -0.333333333333     -0.166666666667
      0.166666666667     -0.333333333333     -0.166666666667
      0.333333333333     -0.333333333333     -0.166666666667
      0.500000000000     -0.333333333333     -0.166666666667
     -0.333333333333     -0.333333333333     -0.166666666667
     -0.166666666667     -0.333333333333     -0.166666666667
      0.000000000000     -0.166666666667     -0.166666666667
      0.166666666667     -0.166666666667     -0.166666666667
      0.333333333333     -0.166666666667     -0.166666666667
      0.500000000000     -0.166666666667     -0.166666666667
     -0.333333333333     -0.166666666667     -0.166666666667
     -0.166666666667     -0.166666666667     -0.166666666667
end kpoints
