InAs 0% (001)-biaxial strain fit to GaSb, volume=6.947648347
1.0
  0.000000000 3.029000000 3.029000000
  3.029000000 0.000000000 3.029000000
  3.029000000 3.029000000 0.000000000
   In   As
    1    1
Direct
  0.000000   0.000000   0.000000
  0.250000   0.250000   0.250000
